1 565 575
22 520 585
49 605 625
32 575 665
36 685 610
37 770 610
40 760 650
39 720 635
38 795 645
24 835 625
5 845 655
6 880 660
4 945 685
25 975 580
46 830 485
16 725 370
44 700 500
35 685 595
34 700 580
48 830 610
15 845 680
43 875 920
10 650 1130
9 580 1175
8 525 1000
19 510 875
45 555 815
41 475 960
3 345 750
18 415 635
31 420 555
23 480 415
20 560 365
50 595 360
29 660 180
21 300 465
17 145 665
2 25 185
7 25 230
42 95 260
30 410 250
47 1170 65
26 1215 245
27 1320 315
13 1465 200
52 1740 245
14 1530 5
28 1250 400
12 1220 580
11 1605 620
51 1340 725
33 1150 1160
1 565 575
1 565 575
